\ENCODING=ISO-8859-1
\Problem name: ilog.cplex

Maximize
 obj: 1069 x(0)#0 + 740 x(1)#1 + 785 x(2)#2 + 1130 x(3)#3 + 937 x(4)#4
      + 541 x(5)#5 + 813 x(6)#6 + 997 x(7)#7 + 827 x(8)#8 + 954 x(9)#9
      + 603 x(10)#10 + 523 x(11)#11 + 905 x(12)#12 + 673 x(13)#13
      + 1000 x(14)#14 + 306 x(15)#15 + 881 x(16)#16 + 758 x(17)#17
      + 594 x(18)#18 + 716 x(19)#19 + 540 x(20)#20 + 716 x(21)#21
      + 771 x(22)#22 + 695 x(23)#23 + 722 x(24)#24 + 672 x(25)#25
      + 829 x(26)#26 + 621 x(27)#27 + 520 x(28)#28 + 692 x(29)#29
      + 875 x(30)#30 + 567 x(31)#31 + 656 x(32)#32 + 528 x(33)#33
      + 934 x(34)#34 + 584 x(35)#35 + 723 x(36)#36 + 626 x(37)#37
      + 914 x(38)#38 + 563 x(39)#39 + 889 x(40)#40 + 1045 x(41)#41
      + 850 x(42)#42 + 493 x(43)#43 + 675 x(44)#44 + 485 x(45)#45
      + 826 x(46)#46 + 922 x(47)#47 + 1178 x(48)#48 + 542 x(49)#49
      + 612 x(50)#50 + 693 x(51)#51 + 539 x(52)#52 + 990 x(53)#53
      + 726 x(54)#54 + 1008 x(55)#55 + 566 x(56)#56 + 877 x(57)#57
      + 640 x(58)#58 + 802 x(59)#59 + 761 x(60)#60 + 712 x(61)#61
      + 304 x(62)#62 + 896 x(63)#63 + 805 x(64)#64 + 522 x(65)#65
      + 599 x(66)#66 + 1015 x(67)#67 + 960 x(68)#68 + 612 x(69)#69
      + 881 x(70)#70 + 891 x(71)#71 + 535 x(72)#72 + 662 x(73)#73
      + 732 x(74)#74 + 966 x(75)#75 + 750 x(76)#76 + 1025 x(77)#77
      + 512 x(78)#78 + 1186 x(79)#79 + 985 x(80)#80 + 382 x(81)#81
      + 426 x(82)#82 + 538 x(83)#83 + 879 x(84)#84 + 502 x(85)#85
      + 733 x(86)#86 + 639 x(87)#87 + 460 x(88)#88 + 802 x(89)#89
      + 450 x(90)#90 + 562 x(91)#91 + 1087 x(92)#92 + 744 x(93)#93
      + 981 x(94)#94 + 836 x(95)#95 + 1042 x(96)#96 + 737 x(97)#97
      + 581 x(98)#98 + 572 x(99)#99
Subject To
 c1: 135 x(0)#0 + 997 x(1)#1 + 850 x(2)#2 + 971 x(3)#3 + 321 x(4)#4 + 83 x(5)#5
     + 101 x(6)#6 + 575 x(7)#7 + 333 x(8)#8 + 382 x(9)#9 + 476 x(10)#10
     + 459 x(11)#11 + 490 x(12)#12 + 781 x(13)#13 + 128 x(14)#14 + 156 x(15)#15
     + 557 x(16)#16 + 442 x(17)#17 + 103 x(18)#18 + 268 x(19)#19 + 740 x(20)#20
     + 461 x(21)#21 + 833 x(22)#22 + 725 x(23)#23 + 435 x(24)#24 + 233 x(25)#25
     + 341 x(26)#26 + 470 x(27)#27 + 394 x(28)#28 + 41 x(29)#29 + 534 x(30)#30
     + 120 x(31)#31 + 515 x(32)#32 + 792 x(33)#33 + 522 x(34)#34 + 413 x(35)#35
     + 853 x(36)#36 + 507 x(37)#37 + 348 x(38)#38 + 797 x(39)#39 + 362 x(40)#40
     + 879 x(41)#41 + 422 x(42)#42 + 319 x(43)#43 + 185 x(44)#44 + 641 x(45)#45
     + 760 x(46)#46 + 498 x(47)#47 + 946 x(48)#48 + 82 x(49)#49 + 799 x(50)#50
     + 178 x(51)#51 + 692 x(52)#52 + 503 x(53)#53 + 55 x(54)#54 + 665 x(55)#55
     + 481 x(56)#56 + 442 x(57)#57 + 222 x(58)#58 + 378 x(59)#59 + 868 x(60)#60
     + 586 x(61)#61 + 85 x(62)#62 + 534 x(63)#63 + 240 x(64)#64 + 291 x(65)#65
     + 112 x(66)#66 + 877 x(67)#67 + 608 x(68)#68 + 21 x(69)#69 + 352 x(70)#70
     + 900 x(71)#71 + 422 x(72)#72 + 293 x(73)#73 + 988 x(74)#74 + 481 x(75)#75
     + 116 x(76)#76 + 542 x(77)#77 + 276 x(78)#78 + 624 x(79)#79 + 700 x(80)#80
     + 325 x(81)#81 + 17 x(82)#82 + 51 x(83)#83 + 176 x(84)#84 + 47 x(85)#85
     + 462 x(86)#86 + 58 x(87)#87 + 361 x(88)#88 + 484 x(89)#89 + 759 x(90)#90
     + 288 x(91)#91 + 776 x(92)#92 + 896 x(93)#93 + 99 x(94)#94 + 441 x(95)#95
     + 893 x(96)#96 + 381 x(97)#97 + 131 x(98)#98 + 53 x(99)#99 <= 33604
 c2: 723 x(0)#0 + 666 x(1)#1 + 176 x(2)#2 + 662 x(3)#3 + 544 x(4)#4
     + 657 x(5)#5 + 430 x(6)#6 + 497 x(7)#7 + 470 x(8)#8 + 883 x(9)#9
     + 923 x(10)#10 + 158 x(11)#11 + 411 x(12)#12 + 388 x(13)#13 + 797 x(14)#14
     + 343 x(15)#15 + 376 x(16)#16 + 343 x(17)#17 + 222 x(18)#18 + 26 x(19)#19
     + 35 x(20)#20 + 407 x(21)#21 + 656 x(22)#22 + 903 x(23)#23 + 37 x(24)#24
     + 499 x(25)#25 + 80 x(26)#26 + 728 x(27)#27 + 611 x(28)#28 + 911 x(29)#29
     + 685 x(30)#30 + 467 x(31)#31 + 661 x(32)#32 + 57 x(33)#33 + 166 x(34)#34
     + 10 x(35)#35 + 313 x(36)#36 + 266 x(37)#37 + 828 x(38)#38 + 221 x(39)#39
     + 668 x(40)#40 + 553 x(41)#41 + 388 x(42)#42 + 180 x(43)#43 + 454 x(44)#44
     + 55 x(45)#45 + 539 x(46)#46 + 118 x(47)#47 + 643 x(48)#48 + 445 x(49)#49
     + 551 x(50)#50 + 840 x(51)#51 + 480 x(52)#52 + 757 x(53)#53 + 673 x(54)#54
     + 534 x(55)#55 + 275 x(56)#56 + 266 x(57)#57 + 436 x(58)#58 + 667 x(59)#59
     + 9 x(60)#60 + 64 x(61)#61 + 5 x(62)#62 + 185 x(63)#63 + 359 x(64)#64
     + 227 x(65)#65 + 336 x(66)#66 + 328 x(67)#67 + 632 x(68)#68 + 914 x(69)#69
     + 158 x(70)#70 + 118 x(71)#71 + x(72)#72 + 480 x(73)#73 + 872 x(74)#74
     + 458 x(75)#75 + 757 x(76)#76 + 605 x(77)#77 + 538 x(78)#78 + 977 x(79)#79
     + 961 x(80)#80 + 593 x(81)#81 + 336 x(82)#82 + 460 x(83)#83 + 759 x(84)#84
     + 572 x(85)#85 + 698 x(86)#86 + 264 x(87)#87 + 747 x(88)#88 + 486 x(89)#89
     + 159 x(90)#90 + 523 x(91)#91 + 560 x(92)#92 + 986 x(93)#93 + 379 x(94)#94
     + 111 x(95)#95 + 384 x(96)#96 + 88 x(97)#97 + 751 x(98)#98 + 920 x(99)#99
     <= 34889
 c3: 421 x(0)#0 + 655 x(1)#1 + 988 x(2)#2 + 957 x(3)#3 + 922 x(4)#4
     + 775 x(5)#5 + 320 x(6)#6 + 217 x(7)#7 + 33 x(8)#8 + 280 x(9)#9
     + 148 x(10)#10 + 126 x(11)#11 + 251 x(12)#12 + 604 x(13)#13 + 979 x(14)#14
     + 70 x(15)#15 + 649 x(16)#16 + 693 x(17)#17 + 211 x(18)#18 + 778 x(19)#19
     + 341 x(20)#20 + 326 x(21)#21 + 609 x(22)#22 + 711 x(23)#23 + 983 x(24)#24
     + 314 x(25)#25 + 990 x(26)#26 + 219 x(27)#27 + 240 x(28)#28 + 664 x(29)#29
     + 380 x(30)#30 + 314 x(31)#31 + 617 x(32)#32 + 577 x(33)#33 + 710 x(34)#34
     + 809 x(35)#35 + 593 x(36)#36 + 663 x(37)#37 + 114 x(38)#38 + 367 x(39)#39
     + 777 x(40)#40 + 653 x(41)#41 + 312 x(42)#42 + 79 x(43)#43 + 832 x(44)#44
     + 478 x(45)#45 + 87 x(46)#46 + 543 x(47)#47 + 781 x(48)#48 + 151 x(49)#49
     + 820 x(50)#50 + 301 x(51)#51 + 183 x(52)#52 + 604 x(53)#53 + 962 x(54)#54
     + 638 x(55)#55 + 550 x(56)#56 + 723 x(57)#57 + 616 x(58)#58 + 558 x(59)#59
     + 600 x(60)#60 + 162 x(61)#61 + 469 x(62)#62 + 495 x(63)#63 + 243 x(64)#64
     + 729 x(65)#65 + 844 x(66)#66 + 586 x(67)#67 + 270 x(68)#68 + 784 x(69)#69
     + 151 x(70)#70 + 510 x(71)#71 + 805 x(72)#72 + 495 x(73)#73 + 637 x(74)#74
     + 883 x(75)#75 + 192 x(76)#76 + 95 x(77)#77 + 244 x(78)#78 + 438 x(79)#79
     + 267 x(80)#80 + 315 x(81)#81 + 189 x(82)#82 + 666 x(83)#83 + 500 x(84)#84
     + 478 x(85)#85 + 297 x(86)#86 + 634 x(87)#87 + 86 x(88)#88 + 379 x(89)#89
     + 87 x(90)#90 + 481 x(91)#91 + 999 x(92)#92 + 135 x(93)#93 + 707 x(94)#94
     + 598 x(95)#95 + 340 x(96)#96 + 959 x(97)#97 + 269 x(98)#98 + 504 x(99)#99
     <= 37341
 c4: 680 x(0)#0 + 353 x(1)#1 + 767 x(2)#2 + 469 x(3)#3 + 414 x(4)#4
     + 140 x(5)#5 + 21 x(6)#6 + 963 x(7)#7 + 756 x(8)#8 + 678 x(9)#9
     + 9 x(10)#10 + 771 x(11)#11 + 844 x(12)#12 + 745 x(13)#13 + 877 x(14)#14
     + 8 x(15)#15 + 449 x(16)#16 + 757 x(17)#17 + 744 x(18)#18 + 715 x(19)#19
     + 662 x(20)#20 + 483 x(21)#21 + 669 x(22)#22 + 179 x(23)#23 + 214 x(24)#24
     + 247 x(25)#25 + 526 x(26)#26 + 751 x(27)#27 + 963 x(28)#28 + 843 x(29)#29
     + 923 x(30)#30 + 620 x(31)#31 + 183 x(32)#32 + 3 x(33)#33 + 274 x(34)#34
     + 221 x(35)#35 + 988 x(36)#36 + 349 x(37)#37 + 486 x(38)#38 + 277 x(39)#39
     + 580 x(40)#40 + 636 x(41)#41 + 456 x(42)#42 + 246 x(43)#43 + 423 x(44)#44
     + 33 x(45)#45 + 270 x(46)#46 + 535 x(47)#47 + 896 x(48)#48 + 896 x(49)#49
     + 102 x(50)#50 + 351 x(51)#51 + 439 x(52)#52 + 195 x(53)#53 + 912 x(54)#54
     + 916 x(55)#55 + 884 x(56)#56 + 577 x(57)#57 + 334 x(58)#58 + 2 x(59)#59
     + 256 x(60)#60 + 989 x(61)#61 + 637 x(62)#62 + 524 x(63)#63 + 844 x(64)#64
     + 246 x(65)#65 + 264 x(66)#66 + 964 x(67)#67 + 694 x(68)#68 + 985 x(69)#69
     + 649 x(70)#70 + 859 x(71)#71 + 887 x(72)#72 + 953 x(73)#73 + 327 x(74)#74
     + 255 x(75)#75 + 309 x(76)#76 + 802 x(77)#77 + 342 x(78)#78 + 991 x(79)#79
     + 801 x(80)#80 + 464 x(81)#81 + 146 x(82)#82 + 471 x(83)#83 + 592 x(84)#84
     + 242 x(85)#85 + 497 x(86)#86 + 492 x(87)#87 + 50 x(88)#88 + 854 x(89)#89
     + 747 x(90)#90 + 87 x(91)#91 + 612 x(92)#92 + 500 x(93)#93 + 834 x(94)#94
     + 186 x(95)#95 + 590 x(96)#96 + 9 x(97)#97 + 769 x(98)#98 + 356 x(99)#99
     <= 39585
 c5: 948 x(0)#0 + 106 x(1)#1 + 255 x(2)#2 + 348 x(3)#3 + 605 x(4)#4
     + 796 x(5)#5 + 880 x(6)#6 + 878 x(7)#7 + 285 x(8)#8 + 637 x(9)#9
     + 199 x(10)#10 + 265 x(11)#11 + 827 x(12)#12 + 445 x(13)#13 + 933 x(14)#14
     + 692 x(15)#15 + 82 x(16)#16 + 314 x(17)#17 + 696 x(18)#18 + 84 x(19)#19
     + 223 x(20)#20 + 382 x(21)#21 + 893 x(22)#22 + 199 x(23)#23 + 975 x(24)#24
     + 744 x(25)#25 + 764 x(26)#26 + 341 x(27)#27 + 286 x(28)#28 + 30 x(29)#29
     + 261 x(30)#30 + 204 x(31)#31 + 23 x(32)#32 + 29 x(33)#33 + 870 x(34)#34
     + 384 x(35)#35 + 759 x(36)#36 + 446 x(37)#37 + 577 x(38)#38 + 188 x(39)#39
     + 456 x(40)#40 + 153 x(41)#41 + 535 x(42)#42 + 243 x(43)#43 + 806 x(44)#44
     + 166 x(45)#45 + 192 x(46)#46 + 549 x(47)#47 + 420 x(48)#48 + 360 x(49)#49
     + 142 x(50)#50 + 867 x(51)#51 + 780 x(52)#52 + 416 x(53)#53 + 108 x(54)#54
     + 985 x(55)#55 + 72 x(56)#56 + 819 x(57)#57 + 569 x(58)#58 + 565 x(59)#59
     + 963 x(60)#60 + 994 x(61)#61 + 260 x(62)#62 + 308 x(63)#63 + 438 x(64)#64
     + 877 x(65)#65 + 423 x(66)#66 + 983 x(67)#67 + 844 x(68)#68 + 63 x(69)#69
     + 860 x(70)#70 + 408 x(71)#71 + 173 x(72)#72 + 1000 x(73)#73
     + 408 x(74)#74 + 423 x(75)#75 + 203 x(76)#76 + 605 x(77)#77 + 393 x(78)#78
     + 802 x(79)#79 + 902 x(80)#80 + 135 x(81)#81 + 289 x(82)#82 + 160 x(83)#83
     + 32 x(84)#84 + 789 x(85)#85 + 704 x(86)#86 + 781 x(87)#87 + 951 x(88)#88
     + 387 x(89)#89 + 218 x(90)#90 + 507 x(91)#91 + 54 x(92)#92 + 168 x(93)#93
     + 958 x(94)#94 + 388 x(95)#95 + 730 x(96)#96 + 728 x(97)#97 + 202 x(98)#98
     + 466 x(99)#99 <= 36775
Bounds
 0 <= x(0)#0 <= 1
 0 <= x(1)#1 <= 1
 0 <= x(2)#2 <= 1
 0 <= x(3)#3 <= 1
 0 <= x(4)#4 <= 1
 0 <= x(5)#5 <= 1
 0 <= x(6)#6 <= 1
 0 <= x(7)#7 <= 1
 0 <= x(8)#8 <= 1
 0 <= x(9)#9 <= 1
 0 <= x(10)#10 <= 1
 0 <= x(11)#11 <= 1
 0 <= x(12)#12 <= 1
 0 <= x(13)#13 <= 1
 0 <= x(14)#14 <= 1
 0 <= x(15)#15 <= 1
 0 <= x(16)#16 <= 1
 0 <= x(17)#17 <= 1
 0 <= x(18)#18 <= 1
 0 <= x(19)#19 <= 1
 0 <= x(20)#20 <= 1
 0 <= x(21)#21 <= 1
 0 <= x(22)#22 <= 1
 0 <= x(23)#23 <= 1
 0 <= x(24)#24 <= 1
 0 <= x(25)#25 <= 1
 0 <= x(26)#26 <= 1
 0 <= x(27)#27 <= 1
 0 <= x(28)#28 <= 1
 0 <= x(29)#29 <= 1
 0 <= x(30)#30 <= 1
 0 <= x(31)#31 <= 1
 0 <= x(32)#32 <= 1
 0 <= x(33)#33 <= 1
 0 <= x(34)#34 <= 1
 0 <= x(35)#35 <= 1
 0 <= x(36)#36 <= 1
 0 <= x(37)#37 <= 1
 0 <= x(38)#38 <= 1
 0 <= x(39)#39 <= 1
 0 <= x(40)#40 <= 1
 0 <= x(41)#41 <= 1
 0 <= x(42)#42 <= 1
 0 <= x(43)#43 <= 1
 0 <= x(44)#44 <= 1
 0 <= x(45)#45 <= 1
 0 <= x(46)#46 <= 1
 0 <= x(47)#47 <= 1
 0 <= x(48)#48 <= 1
 0 <= x(49)#49 <= 1
 0 <= x(50)#50 <= 1
 0 <= x(51)#51 <= 1
 0 <= x(52)#52 <= 1
 0 <= x(53)#53 <= 1
 0 <= x(54)#54 <= 1
 0 <= x(55)#55 <= 1
 0 <= x(56)#56 <= 1
 0 <= x(57)#57 <= 1
 0 <= x(58)#58 <= 1
 0 <= x(59)#59 <= 1
 0 <= x(60)#60 <= 1
 0 <= x(61)#61 <= 1
 0 <= x(62)#62 <= 1
 0 <= x(63)#63 <= 1
 0 <= x(64)#64 <= 1
 0 <= x(65)#65 <= 1
 0 <= x(66)#66 <= 1
 0 <= x(67)#67 <= 1
 0 <= x(68)#68 <= 1
 0 <= x(69)#69 <= 1
 0 <= x(70)#70 <= 1
 0 <= x(71)#71 <= 1
 0 <= x(72)#72 <= 1
 0 <= x(73)#73 <= 1
 0 <= x(74)#74 <= 1
 0 <= x(75)#75 <= 1
 0 <= x(76)#76 <= 1
 0 <= x(77)#77 <= 1
 0 <= x(78)#78 <= 1
 0 <= x(79)#79 <= 1
 0 <= x(80)#80 <= 1
 0 <= x(81)#81 <= 1
 0 <= x(82)#82 <= 1
 0 <= x(83)#83 <= 1
 0 <= x(84)#84 <= 1
 0 <= x(85)#85 <= 1
 0 <= x(86)#86 <= 1
 0 <= x(87)#87 <= 1
 0 <= x(88)#88 <= 1
 0 <= x(89)#89 <= 1
 0 <= x(90)#90 <= 1
 0 <= x(91)#91 <= 1
 0 <= x(92)#92 <= 1
 0 <= x(93)#93 <= 1
 0 <= x(94)#94 <= 1
 0 <= x(95)#95 <= 1
 0 <= x(96)#96 <= 1
 0 <= x(97)#97 <= 1
 0 <= x(98)#98 <= 1
 0 <= x(99)#99 <= 1
Generals
 x(0)#0  x(1)#1  x(2)#2  x(3)#3  x(4)#4  x(5)#5  x(6)#6  x(7)#7  x(8)#8 
 x(9)#9  x(10)#10  x(11)#11  x(12)#12  x(13)#13  x(14)#14  x(15)#15  x(16)#16 
 x(17)#17  x(18)#18  x(19)#19  x(20)#20  x(21)#21  x(22)#22  x(23)#23 
 x(24)#24  x(25)#25  x(26)#26  x(27)#27  x(28)#28  x(29)#29  x(30)#30 
 x(31)#31  x(32)#32  x(33)#33  x(34)#34  x(35)#35  x(36)#36  x(37)#37 
 x(38)#38  x(39)#39  x(40)#40  x(41)#41  x(42)#42  x(43)#43  x(44)#44 
 x(45)#45  x(46)#46  x(47)#47  x(48)#48  x(49)#49  x(50)#50  x(51)#51 
 x(52)#52  x(53)#53  x(54)#54  x(55)#55  x(56)#56  x(57)#57  x(58)#58 
 x(59)#59  x(60)#60  x(61)#61  x(62)#62  x(63)#63  x(64)#64  x(65)#65 
 x(66)#66  x(67)#67  x(68)#68  x(69)#69  x(70)#70  x(71)#71  x(72)#72 
 x(73)#73  x(74)#74  x(75)#75  x(76)#76  x(77)#77  x(78)#78  x(79)#79 
 x(80)#80  x(81)#81  x(82)#82  x(83)#83  x(84)#84  x(85)#85  x(86)#86 
 x(87)#87  x(88)#88  x(89)#89  x(90)#90  x(91)#91  x(92)#92  x(93)#93 
 x(94)#94  x(95)#95  x(96)#96  x(97)#97  x(98)#98  x(99)#99 
End
